p cnf 165 393
1 0
14 15 0
-14 -15 0
16 17 0
-16 -17 0
-13 14 0
-13 16 0
13 -14 -16 0
19 -15 0
-19 15 0
20 17 0
-20 -17 0
-18 19 0
-18 20 0
18 -19 -20 0
12 -13 0
12 -18 0
-12 13 18 0
23 24 0
-23 -24 0
25 26 0
-25 -26 0
-22 23 0
-22 25 0
22 -23 -25 0
28 -24 0
-28 24 0
29 26 0
-29 -26 0
-27 28 0
-27 29 0
27 -28 -29 0
21 -22 0
21 -27 0
-21 22 27 0
-11 12 0
-11 21 0
11 -12 -21 0
32 33 0
-32 -33 0
34 35 0
-34 -35 0
-31 32 0
-31 34 0
31 -32 -34 0
37 -33 0
-37 33 0
38 35 0
-38 -35 0
-36 37 0
-36 38 0
36 -37 -38 0
30 -31 0
30 -36 0
-30 31 36 0
-10 11 0
-10 30 0
10 -11 -30 0
41 42 0
-41 -42 0
43 44 0
-43 -44 0
-40 41 0
-40 43 0
40 -41 -43 0
46 -42 0
-46 42 0
47 44 0
-47 -44 0
-45 46 0
-45 47 0
45 -46 -47 0
39 -40 0
39 -45 0
-39 40 45 0
-9 10 0
-9 39 0
9 -10 -39 0
-48 9 0
48 -9 0
8 -9 0
8 -48 0
-8 9 48 0
-49 9 0
49 -9 0
7 -8 0
7 -49 0
-7 8 49 0
-50 9 0
50 -9 0
6 -7 0
6 -50 0
-6 7 50 0
-54 45 0
54 -45 0
-55 18 0
55 -18 0
-53 54 0
-53 55 0
53 -54 -55 0
58 42 0
-58 -42 0
59 -44 0
-59 44 0
-57 58 0
-57 59 0
57 -58 -59 0
-60 18 0
60 -18 0
-56 57 0
-56 60 0
56 -57 -60 0
52 -53 0
52 -56 0
-52 53 56 0
-62 40 0
62 -40 0
64 15 0
-64 -15 0
65 -17 0
-65 17 0
-63 64 0
-63 65 0
63 -64 -65 0
-61 62 0
-61 63 0
61 -62 -63 0
51 -52 0
51 -61 0
-51 52 61 0
-5 6 0
-5 51 0
5 -6 -51 0
-70 9 0
70 -9 0
-73 21 0
73 -21 0
-74 30 0
74 -30 0
-72 73 0
-72 74 0
72 -73 -74 0
-75 39 0
75 -39 0
-71 72 0
-71 75 0
71 -72 -75 0
69 -70 0
69 -71 0
-69 70 71 0
-76 71 0
76 -71 0
68 -69 0
68 -76 0
-68 69 76 0
-77 71 0
77 -71 0
67 -68 0
67 -77 0
-67 68 77 0
-81 45 0
81 -45 0
-82 27 0
82 -27 0
-80 81 0
-80 82 0
80 -81 -82 0
-84 57 0
84 -57 0
-85 27 0
85 -27 0
-83 84 0
-83 85 0
83 -84 -85 0
79 -80 0
79 -83 0
-79 80 83 0
-87 40 0
87 -40 0
89 24 0
-89 -24 0
90 -26 0
-90 26 0
-88 89 0
-88 90 0
88 -89 -90 0
-86 87 0
-86 88 0
86 -87 -88 0
78 -79 0
78 -86 0
-78 79 86 0
-66 67 0
-66 78 0
66 -67 -78 0
4 -5 0
4 -66 0
-4 5 66 0
-94 69 0
94 -69 0
-96 30 0
96 -30 0
-97 39 0
97 -39 0
-95 96 0
-95 97 0
95 -96 -97 0
93 -94 0
93 -95 0
-93 94 95 0
-98 95 0
98 -95 0
92 -93 0
92 -98 0
-92 93 98 0
-102 45 0
102 -45 0
-103 36 0
103 -36 0
-101 102 0
-101 103 0
101 -102 -103 0
-105 57 0
105 -57 0
-106 36 0
106 -36 0
-104 105 0
-104 106 0
104 -105 -106 0
100 -101 0
100 -104 0
-100 101 104 0
-108 40 0
108 -40 0
110 33 0
-110 -33 0
111 -35 0
-111 35 0
-109 110 0
-109 111 0
109 -110 -111 0
-107 108 0
-107 109 0
107 -108 -109 0
99 -100 0
99 -107 0
-99 100 107 0
-91 92 0
-91 99 0
91 -92 -99 0
3 -4 0
3 -91 0
-3 4 91 0
-114 93 0
114 -93 0
-115 39 0
115 -39 0
113 -114 0
113 -115 0
-113 114 115 0
-119 45 0
119 -45 0
-120 45 0
120 -45 0
-118 119 0
-118 120 0
118 -119 -120 0
-122 57 0
122 -57 0
-123 45 0
123 -45 0
-121 122 0
-121 123 0
121 -122 -123 0
117 -118 0
117 -121 0
-117 118 121 0
-125 40 0
125 -40 0
-126 57 0
126 -57 0
-124 125 0
-124 126 0
124 -125 -126 0
116 -117 0
116 -124 0
-116 117 124 0
-112 113 0
-112 116 0
112 -113 -116 0
2 -3 0
2 -112 0
-2 3 112 0
-133 18 0
133 -18 0
-134 27 0
134 -27 0
-132 133 0
-132 134 0
132 -133 -134 0
-136 63 0
136 -63 0
-137 27 0
137 -27 0
-135 136 0
-135 137 0
135 -136 -137 0
131 -132 0
131 -135 0
-131 132 135 0
-139 13 0
139 -13 0
-140 88 0
140 -88 0
-138 139 0
-138 140 0
138 -139 -140 0
130 -131 0
130 -138 0
-130 131 138 0
-144 27 0
144 -27 0
-145 36 0
145 -36 0
-143 144 0
-143 145 0
143 -144 -145 0
-147 88 0
147 -88 0
-148 36 0
148 -36 0
-146 147 0
-146 148 0
146 -147 -148 0
142 -143 0
142 -146 0
-142 143 146 0
-150 22 0
150 -22 0
-151 109 0
151 -109 0
-149 150 0
-149 151 0
149 -150 -151 0
141 -142 0
141 -149 0
-141 142 149 0
-129 130 0
-129 141 0
129 -130 -141 0
-155 36 0
155 -36 0
-156 45 0
156 -45 0
-154 155 0
-154 156 0
154 -155 -156 0
-158 109 0
158 -109 0
-159 45 0
159 -45 0
-157 158 0
-157 159 0
157 -158 -159 0
153 -154 0
153 -157 0
-153 154 157 0
-161 31 0
161 -31 0
-162 57 0
162 -57 0
-160 161 0
-160 162 0
160 -161 -162 0
152 -153 0
152 -160 0
-152 153 160 0
-128 129 0
-128 152 0
128 -129 -152 0
-164 13 0
164 -13 0
-165 13 0
165 -13 0
163 -164 0
163 -165 0
-163 164 165 0
-127 128 0
-127 163 0
127 -128 -163 0
-1 2 0
-1 127 0
1 -2 -127 0
